(declare-fun e () String)
(declare-fun c () String)
(declare-fun g () String)
(declare-fun b () String)
(declare-fun d () String)
(declare-fun f () String)
(declare-fun h () String)
(assert (= (str.++ "b" c "g" b h "c") (str.++ g e d c e f)))
(assert (= "fah" (str.++ h "f" d)))
(assert (= (str.++ "c" b "g") (str.++ "g" f)))

(check-sat)
